c turning on binary mode checking
c parsing input formula with 259840 variables and 1039929 clauses
c finished parsing, read 23814457 bytes from proof file
c detected empty clause; start verification via backward checking
c 18692 of 1039929 clauses in core                            
c 22648 of 606368 lemmas in core using 120121 resolution steps
c 0 RAT lemmas in core; 1082 redundant literals in core lemmas
s VERIFIED
c verification time: 3.455 seconds
